
Gurobi 12.0.3 (linux64) logging started Thu Mar 26 23:45:24 2026

Set parameter LogFile to value "/home/solar-wind/WT_Solar_results_bigM100000_thread4/case24_ieee_rts_theta0.12_epsilon0.08_gurobi_seed0_num_gen38_N_WDR200_load_scaling_factor1_EIFICA_T24_num_Solar5_num_WT10.txt"
Gurobi Optimizer version 12.0.3 build v12.0.3rc0 (linux64 - "Ubuntu 22.04.5 LTS")

CPU model: Intel(R) Xeon(R) Platinum 8378A CPU @ 3.00GHz, instruction set [SSE2|AVX|AVX2|AVX512]
Thread count: 32 physical cores, 64 logical processors, using up to 4 threads

Non-default parameters:
TimeLimit  14400
MIPGap  0.001
Threads  4

Academic license 2721591 - for non-commercial use only - registered to fa___@mails.neu.edu.cn
Optimize a model with 595812 rows, 2025 columns and 50902696 nonzeros
Model fingerprint: 0x2e4aee6c
Model has 912 quadratic objective terms
Coefficient statistics:
  Matrix range     [2e-06, 7e+01]
  Objective range  [2e+01, 6e+01]
  QObjective range [4e-03, 2e-02]
  Bounds range     [0e+00, 0e+00]
  RHS range        [4e-02, 1e+03]
Presolve removed 443406 rows and 0 columns
Presolve time: 5.19s
Presolved: 152406 rows, 2899 columns, 3456318 nonzeros
Presolved model has 912 quadratic objective terms
Elapsed ordering time = 12s
Ordering time: 22.26s
Elapsed ordering time = 22s
Elapsed ordering time = 26s
Elapsed ordering time = 28s
Elapsed ordering time = 30s
Elapsed ordering time = 33s
Elapsed ordering time = 36s
Ordering time: 39.06s

Barrier statistics:
 Dense cols : 1099
 AA' NZ     : 1.361e+08
 Factor NZ  : 5.566e+08 (roughly 4.5 GB of memory)
 Factor Ops : 6.372e+12 (roughly 36 seconds per iteration)
 Threads    : 4

                  Objective                Residual
Iter       Primal          Dual         Primal    Dual     Compl     Time
   0   5.46544543e+08 -2.65041546e+08  3.65e+04 1.00e+03  9.92e+05   117s
   1   4.91125130e+08 -2.28156619e+08  3.39e+04 9.29e+02  9.22e+05   117s
   2   4.71459124e+08 -2.64594362e+08  3.30e+04 9.02e+02  9.07e+05   117s
   3   4.37538140e+08 -3.24262567e+08  3.14e+04 8.54e+02  8.76e+05   117s
   4   3.76554298e+08 -3.66067448e+08  2.83e+04 7.65e+02  8.14e+05   118s
   5   3.34308633e+08 -4.18024952e+08  2.60e+04 7.00e+02  7.89e+05   118s
   6   2.89364547e+08 -4.29754896e+08  2.35e+04 6.28e+02  7.09e+05   118s
   7   2.55266033e+08 -4.41920313e+08  2.14e+04 5.70e+02  6.45e+05   118s
   8   2.19706602e+08 -4.56630188e+08  1.90e+04 5.07e+02  5.76e+05   118s
   9   1.91541867e+08 -4.75413594e+08  1.71e+04 4.54e+02  5.16e+05   118s
  10   1.64717475e+08 -4.92670957e+08  1.52e+04 4.01e+02  4.58e+05   118s
  11   1.42966995e+08 -5.11801438e+08  1.36e+04 3.55e+02  4.07e+05   118s
  12   1.26096703e+08 -5.29290251e+08  1.23e+04 3.19e+02  3.66e+05   118s
  13   1.09896835e+08 -5.48596499e+08  1.10e+04 2.82e+02  3.25e+05   119s
  14   9.10834783e+07 -5.74340424e+08  9.44e+03 2.39e+02  2.77e+05   119s
  15   7.50920886e+07 -5.97495158e+08  8.07e+03 2.01e+02  2.34e+05   119s
  16   5.64708650e+07 -6.23939386e+08  6.34e+03 1.56e+02  1.83e+05   119s
  17   4.67064489e+07 -6.39855309e+08  5.37e+03 1.31e+02  1.54e+05   119s
  18   3.81388701e+07 -6.52805075e+08  4.47e+03 1.08e+02  1.29e+05   119s
  19   3.03970853e+07 -6.61057496e+08  3.62e+03 8.74e+01  1.05e+05   119s
  20   2.47939304e+07 -6.62592628e+08  2.98e+03 7.19e+01  8.65e+04   119s
  21   1.36503828e+07 -6.55722364e+08  2.04e+03 3.96e+01  5.43e+04   119s
  22   1.09310411e+07 -6.34270369e+08  1.70e+03 3.15e+01  4.35e+04   120s
  23   7.23117295e+06 -5.92419444e+08  1.40e+03 2.03e+01  2.89e+04   120s
  24   5.84337374e+06 -5.56247520e+08  1.14e+03 1.61e+01  2.31e+04   120s
  25   4.64743510e+06 -5.19142467e+08  9.45e+02 1.25e+01  1.81e+04   120s
  26   3.93062954e+06 -4.84408458e+08  7.89e+02 1.04e+01  1.51e+04   120s
  27   2.96860984e+06 -4.28765599e+08  5.75e+02 7.46e+00  1.11e+04   120s
  28   2.61749715e+06 -4.16634579e+08  4.90e+02 6.38e+00  9.90e+03   120s
  29   1.85842956e+06 -3.82843193e+08  3.09e+02 3.97e+00  7.33e+03   120s
  30   1.51896010e+06 -3.33126565e+08  2.23e+02 2.85e+00  5.38e+03   120s
  31   1.25629993e+06 -2.82541675e+08  1.52e+02 1.97e+00  3.82e+03   121s
  32   1.10856731e+06 -2.38966694e+08  1.08e+02 1.41e+00  2.79e+03   121s
  33   1.01472759e+06 -2.17581227e+08  8.22e+01 1.07e+00  2.30e+03   121s
  34   8.83941215e+05 -1.93835481e+08  4.55e+01 5.55e-01  1.71e+03   121s
  35   8.59161123e+05 -1.73222145e+08  3.58e+01 4.39e-01  1.45e+03   122s
  36   8.42298831e+05 -1.64587030e+08  2.89e+01 3.54e-01  1.33e+03   122s
  37   8.18318555e+05 -1.31415862e+08  1.86e+01 2.28e-01  9.94e+02   122s
  38   8.10036967e+05 -1.11150370e+08  1.32e+01 1.63e-01  8.12e+02   123s
  39   8.05921044e+05 -1.05830177e+08  1.02e+01 1.24e-01  7.57e+02   123s
  40   8.04305606e+05 -9.74905394e+07  8.23e+00 1.00e-01  6.91e+02   124s
  41   8.02068821e+05 -7.70667296e+07  5.66e+00 6.88e-02  5.43e+02   125s
  42   8.00370406e+05 -5.95417268e+07  3.43e+00 4.17e-02  4.02e+02   141s
  43   7.98104049e+05 -3.04075722e+07  8.10e-01 9.20e+00  2.02e+02   157s
  44   7.95869909e+05  4.02976460e+05  6.62e-03 3.27e-01  2.52e+00   173s
  45   7.43414524e+05  6.47140037e+05  3.39e-04 2.61e-02  6.17e-01   189s
  46   7.23402034e+05  6.94886160e+05  2.92e-05 2.13e-03  1.83e-01   211s
  47   7.20654691e+05  7.03522729e+05  1.10e-04 3.70e-04  1.10e-01   249s
  48   7.19266341e+05  7.10091931e+05  1.28e-05 4.30e-05  5.87e-02   278s
  49   7.18601263e+05  7.13359819e+05  1.30e-07 4.38e-07  3.36e-02   306s
  50   7.17936690e+05  7.16656710e+05  1.54e-10 1.01e-11  8.20e-03   334s
  51   7.17810055e+05  7.17259452e+05  1.84e-10 7.00e-11  3.53e-03   362s
  52   7.17730575e+05  7.17659138e+05  3.93e-10 1.32e-11  4.57e-04   392s
  53   7.17721617e+05  7.17697767e+05  1.69e-09 1.60e-09  1.53e-04   420s
  54   7.17718338e+05  7.17713643e+05  5.67e-10 3.87e-12  3.01e-05   448s
  55   7.17717549e+05  7.17717498e+05  1.28e-08 1.81e-11  3.21e-07   477s
  56   7.17717540e+05  7.17717540e+05  5.88e-10 1.55e-10  5.73e-10   503s

Barrier solved model in 56 iterations and 503.00 seconds (616.20 work units)
Optimal objective 7.17717540e+05

